(set-logic QF_NRA)
(set-info :source |Benchmarks generated from hycomp (https://es-static.fbk.eu/tools/hycomp/). BMC instances of non-linear hybrid automata taken from: Alessandro Cimatti, Sergio Mover, Stefano Tonetta, A quantifier-free SMT encoding of non-linear hybrid automata, FMCAD 2012 and Alessandro Cimatti, Sergio Mover, Stefano Tonetta, Quantier-free encoding of invariants for Hybrid Systems, Formal Methods in System Design. This instance solves a BMC problem of depth 2 and uses the quantifier free encoding with lemmas encoding. Contacts: Sergio Mover (mover@fbk.eu), Stefano Tonetta (tonettas@fbk.eu), Alessandro Cimatti (cimatti@fbk.eu).|)
(set-info :smt-lib-version 2.0)
(set-info :category "industrial")
(set-info :status unsat)
;; MathSAT API call trace
;; generated on Mon Mar 19 10:45:28 2012
(declare-fun b.delta__AT1 () Real)
(declare-fun b.EVENT.0__AT1 () Bool)
(declare-fun b.EVENT.1__AT0 () Bool)
(declare-fun b.speed_y__AT2 () Real)
(declare-fun b.EVENT.1__AT1 () Bool)
(declare-fun b.EVENT.0__AT0 () Bool)
(declare-fun b.time__AT1 () Real)
(declare-fun b.counter.2__AT2 () Bool)
(declare-fun b.speed_y__AT1 () Real)
(declare-fun b.counter.3__AT2 () Bool)
(declare-fun b.time__AT0 () Real)
(declare-fun b.y__AT0 () Real)
(declare-fun b.counter.0__AT0 () Bool)
(declare-fun b.counter.2__AT0 () Bool)
(declare-fun b.counter.1__AT0 () Bool)
(declare-fun b.event_is_timed__AT2 () Bool)
(declare-fun b.counter.1__AT1 () Bool)
(declare-fun b.counter.2__AT1 () Bool)
(declare-fun speed_loss__AT0 () Real)
(declare-fun b.time__AT2 () Real)
(declare-fun b.speed_y__AT0 () Real)
(declare-fun b.delta__AT2 () Real)
(declare-fun b.event_is_timed__AT1 () Bool)
(declare-fun b.counter.0__AT2 () Bool)
(declare-fun b.EVENT.0__AT2 () Bool)
(declare-fun b.event_is_timed__AT0 () Bool)
(declare-fun b.counter.1__AT2 () Bool)
(declare-fun b.y__AT2 () Real)
(declare-fun b.EVENT.1__AT2 () Bool)
(declare-fun b.counter.3__AT1 () Bool)
(declare-fun b.delta__AT0 () Real)
(declare-fun b.y__AT1 () Real)
(declare-fun b.counter.0__AT1 () Bool)
(declare-fun b.counter.3__AT0 () Bool)
(assert (let ((.def_483 (<= b.speed_y__AT2 0.0 )))
(let ((.def_465 (* (- 49.0) b.delta__AT2)))
(let ((.def_466 (* 5.0 b.speed_y__AT2)))
(let ((.def_468 (+ .def_466 .def_465)))
(let ((.def_481 (<= .def_468 0.0 )))
(let ((.def_500 (and .def_481 .def_483)))
(let ((.def_469 (<= 0.0 .def_468)))
(let ((.def_470 (not .def_469)))
(let ((.def_463 (<= 0.0 b.speed_y__AT2)))
(let ((.def_497 (or .def_463 .def_470)))
(let ((.def_484 (not .def_483)))
(let ((.def_496 (or .def_481 .def_484)))
(let ((.def_498 (and .def_496 .def_497)))
(let ((.def_501 (and .def_498 .def_500)))
(let ((.def_495 (and .def_463 .def_469)))
(let ((.def_499 (and .def_495 .def_498)))
(let ((.def_502 (or .def_499 .def_501)))
(let ((.def_455 (* b.speed_y__AT2 b.delta__AT2)))
(let ((.def_456 (* 10.0 .def_455)))
(let ((.def_453 (* b.delta__AT2 b.delta__AT2)))
(let ((.def_454 (* (- 49.0) .def_453)))
(let ((.def_457 (+ .def_454 .def_456)))
(let ((.def_458 (* 10.0 b.y__AT2)))
(let ((.def_460 (+ .def_458 .def_457)))
(let ((.def_475 (<= .def_460 0.0 )))
(let ((.def_489 (not .def_475)))
(let ((.def_473 (<= b.y__AT2 0.0 )))
(let ((.def_490 (or .def_473 .def_489)))
(let ((.def_443 (<= 0.0 b.y__AT2)))
(let ((.def_487 (not .def_443)))
(let ((.def_461 (<= 0.0 .def_460)))
(let ((.def_488 (or .def_461 .def_487)))
(let ((.def_491 (and .def_488 .def_490)))
(let ((.def_482 (not .def_481)))
(let ((.def_485 (or .def_482 .def_484)))
(let ((.def_486 (not .def_485)))
(let ((.def_492 (or .def_486 .def_491)))
(let ((.def_477 (not .def_461)))
(let ((.def_478 (or .def_443 .def_477)))
(let ((.def_474 (not .def_473)))
(let ((.def_476 (or .def_474 .def_475)))
(let ((.def_479 (and .def_476 .def_478)))
(let ((.def_464 (not .def_463)))
(let ((.def_471 (or .def_464 .def_470)))
(let ((.def_472 (not .def_471)))
(let ((.def_480 (or .def_472 .def_479)))
(let ((.def_493 (and .def_480 .def_492)))
(let ((.def_462 (and .def_443 .def_461)))
(let ((.def_494 (and .def_462 .def_493)))
(let ((.def_503 (and .def_494 .def_502)))
(let ((.def_57 (<= speed_loss__AT0 (/ 1 2))))
(let ((.def_54 (<= (/ 1 10) speed_loss__AT0)))
(let ((.def_58 (and .def_54 .def_57)))
(let ((.def_504 (and .def_58 .def_503)))
(let ((.def_143 (not b.counter.0__AT1)))
(let ((.def_447 (or b.counter.1__AT1 .def_143)))
(let ((.def_138 (not b.counter.2__AT1)))
(let ((.def_448 (or .def_138 .def_447)))
(let ((.def_449 (or b.counter.3__AT1 .def_448)))
(let ((.def_444 (and .def_58 .def_443)))
(let ((.def_440 (not b.EVENT.0__AT2)))
(let ((.def_438 (not b.EVENT.1__AT2)))
(let ((.def_441 (or .def_438 .def_440)))
(let ((.def_325 (not b.counter.1__AT2)))
(let ((.def_4 (not b.counter.0__AT2)))
(let ((.def_431 (or .def_4 .def_325)))
(let ((.def_435 (or b.counter.3__AT2 .def_431)))
(let ((.def_432 (or b.counter.2__AT2 .def_431)))
(let ((.def_8 (not b.counter.2__AT2)))
(let ((.def_430 (or .def_4 .def_8)))
(let ((.def_433 (and .def_430 .def_432)))
(let ((.def_342 (not b.counter.3__AT2)))
(let ((.def_434 (or .def_342 .def_433)))
(let ((.def_436 (and .def_434 .def_435)))
(let ((.def_442 (and .def_436 .def_441)))
(let ((.def_445 (and .def_442 .def_444)))
(let ((.def_425 (<= 0.0 b.delta__AT1)))
(let ((.def_252 (not b.EVENT.0__AT1)))
(let ((.def_250 (not b.EVENT.1__AT1)))
(let ((.def_372 (and .def_250 .def_252)))
(let ((.def_376 (not .def_372)))
(let ((.def_426 (or .def_376 .def_425)))
(let ((.def_427 (or b.EVENT.1__AT1 .def_426)))
(let ((.def_364 (= b.counter.0__AT2 b.counter.0__AT1)))
(let ((.def_362 (= b.counter.1__AT2 b.counter.1__AT1)))
(let ((.def_360 (= b.counter.2__AT2 b.counter.2__AT1)))
(let ((.def_359 (= b.counter.3__AT2 b.counter.3__AT1)))
(let ((.def_361 (and .def_359 .def_360)))
(let ((.def_363 (and .def_361 .def_362)))
(let ((.def_365 (and .def_363 .def_364)))
(let ((.def_422 (or .def_365 .def_376)))
(let ((.def_423 (or b.EVENT.1__AT1 .def_422)))
(let ((.def_410 (* (- 10.0) b.y__AT2)))
(let ((.def_267 (* b.speed_y__AT1 b.delta__AT1)))
(let ((.def_268 (* 10.0 .def_267)))
(let ((.def_414 (+ .def_268 .def_410)))
(let ((.def_265 (* b.delta__AT1 b.delta__AT1)))
(let ((.def_266 (* (- 49.0) .def_265)))
(let ((.def_415 (+ .def_266 .def_414)))
(let ((.def_270 (* 10.0 b.y__AT1)))
(let ((.def_416 (+ .def_270 .def_415)))
(let ((.def_417 (= .def_416 0.0 )))
(let ((.def_406 (* (- 5.0) b.speed_y__AT2)))
(let ((.def_277 (* (- 49.0) b.delta__AT1)))
(let ((.def_407 (+ .def_277 .def_406)))
(let ((.def_278 (* 5.0 b.speed_y__AT1)))
(let ((.def_408 (+ .def_278 .def_407)))
(let ((.def_409 (= .def_408 0.0 )))
(let ((.def_418 (and .def_409 .def_417)))
(let ((.def_419 (or .def_376 .def_418)))
(let ((.def_370 (= b.y__AT1 b.y__AT2)))
(let ((.def_358 (= b.speed_y__AT1 b.speed_y__AT2)))
(let ((.def_403 (and .def_358 .def_370)))
(let ((.def_400 (= b.delta__AT1 0.0 )))
(let ((.def_401 (and .def_372 .def_400)))
(let ((.def_402 (not .def_401)))
(let ((.def_404 (or .def_402 .def_403)))
(let ((.def_405 (or b.EVENT.1__AT1 .def_404)))
(let ((.def_420 (and .def_405 .def_419)))
(let ((.def_382 (= b.time__AT1 b.time__AT2)))
(let ((.def_394 (and .def_370 .def_382)))
(let ((.def_395 (and .def_358 .def_394)))
(let ((.def_396 (and .def_365 .def_395)))
(let ((.def_397 (or .def_250 .def_396)))
(let ((.def_385 (* (- 1.0) b.time__AT2)))
(let ((.def_388 (+ b.delta__AT1 .def_385)))
(let ((.def_389 (+ b.time__AT1 .def_388)))
(let ((.def_390 (= .def_389 0.0 )))
(let ((.def_391 (or .def_376 .def_390)))
(let ((.def_392 (or b.EVENT.1__AT1 .def_391)))
(let ((.def_383 (or .def_372 .def_382)))
(let ((.def_384 (or b.EVENT.1__AT1 .def_383)))
(let ((.def_393 (and .def_384 .def_392)))
(let ((.def_398 (and .def_393 .def_397)))
(let ((.def_378 (= .def_376 b.event_is_timed__AT2)))
(let ((.def_375 (= b.event_is_timed__AT1 .def_372)))
(let ((.def_379 (and .def_375 .def_378)))
(let ((.def_366 (and .def_358 .def_365)))
(let ((.def_318 (= b.y__AT1 0.0 )))
(let ((.def_275 (<= 0.0 b.speed_y__AT1)))
(let ((.def_276 (not .def_275)))
(let ((.def_319 (and .def_276 .def_318)))
(let ((.def_367 (or .def_319 .def_366)))
(let ((.def_334 (or .def_4 b.counter.0__AT1)))
(let ((.def_333 (or b.counter.0__AT2 .def_143)))
(let ((.def_335 (and .def_333 .def_334)))
(let ((.def_336 (and .def_325 .def_335)))
(let ((.def_337 (or b.counter.1__AT1 .def_336)))
(let ((.def_131 (not b.counter.1__AT1)))
(let ((.def_332 (or b.counter.1__AT2 .def_131)))
(let ((.def_338 (and .def_332 .def_337)))
(let ((.def_350 (and .def_8 .def_338)))
(let ((.def_351 (or b.counter.2__AT1 .def_350)))
(let ((.def_345 (and .def_143 .def_325)))
(let ((.def_346 (or b.counter.1__AT1 .def_345)))
(let ((.def_347 (and .def_332 .def_346)))
(let ((.def_348 (and b.counter.2__AT2 .def_347)))
(let ((.def_349 (or .def_138 .def_348)))
(let ((.def_352 (and .def_349 .def_351)))
(let ((.def_353 (and b.counter.3__AT2 .def_352)))
(let ((.def_354 (or b.counter.3__AT1 .def_353)))
(let ((.def_339 (and b.counter.2__AT2 .def_338)))
(let ((.def_340 (or b.counter.2__AT1 .def_339)))
(let ((.def_328 (or b.counter.1__AT2 b.counter.1__AT1)))
(let ((.def_326 (and b.counter.0__AT2 .def_325)))
(let ((.def_327 (or .def_131 .def_326)))
(let ((.def_329 (and .def_327 .def_328)))
(let ((.def_330 (and .def_8 .def_329)))
(let ((.def_331 (or .def_138 .def_330)))
(let ((.def_341 (and .def_331 .def_340)))
(let ((.def_343 (and .def_341 .def_342)))
(let ((.def_153 (not b.counter.3__AT1)))
(let ((.def_344 (or .def_153 .def_343)))
(let ((.def_355 (and .def_344 .def_354)))
(let ((.def_321 (* (- 1.0) b.speed_y__AT1)))
(let ((.def_124 (* (- 1.0) speed_loss__AT0)))
(let ((.def_125 (+ 1.0 .def_124)))
(let ((.def_322 (* .def_125 .def_321)))
(let ((.def_324 (= .def_322 b.speed_y__AT2)))
(let ((.def_356 (and .def_324 .def_355)))
(let ((.def_320 (not .def_319)))
(let ((.def_357 (or .def_320 .def_356)))
(let ((.def_368 (and .def_357 .def_367)))
(let ((.def_371 (and .def_368 .def_370)))
(let ((.def_373 (or .def_371 .def_372)))
(let ((.def_374 (or b.EVENT.1__AT1 .def_373)))
(let ((.def_380 (and .def_374 .def_379)))
(let ((.def_399 (and .def_380 .def_398)))
(let ((.def_421 (and .def_399 .def_420)))
(let ((.def_424 (and .def_421 .def_423)))
(let ((.def_428 (and .def_424 .def_427)))
(let ((.def_429 (and .def_250 .def_428)))
(let ((.def_446 (and .def_429 .def_445)))
(let ((.def_450 (and .def_446 .def_449)))
(let ((.def_295 (<= b.speed_y__AT1 0.0 )))
(let ((.def_280 (+ .def_278 .def_277)))
(let ((.def_293 (<= .def_280 0.0 )))
(let ((.def_312 (and .def_293 .def_295)))
(let ((.def_281 (<= 0.0 .def_280)))
(let ((.def_282 (not .def_281)))
(let ((.def_309 (or .def_275 .def_282)))
(let ((.def_296 (not .def_295)))
(let ((.def_308 (or .def_293 .def_296)))
(let ((.def_310 (and .def_308 .def_309)))
(let ((.def_313 (and .def_310 .def_312)))
(let ((.def_307 (and .def_275 .def_281)))
(let ((.def_311 (and .def_307 .def_310)))
(let ((.def_314 (or .def_311 .def_313)))
(let ((.def_269 (+ .def_266 .def_268)))
(let ((.def_272 (+ .def_270 .def_269)))
(let ((.def_287 (<= .def_272 0.0 )))
(let ((.def_301 (not .def_287)))
(let ((.def_285 (<= b.y__AT1 0.0 )))
(let ((.def_302 (or .def_285 .def_301)))
(let ((.def_255 (<= 0.0 b.y__AT1)))
(let ((.def_299 (not .def_255)))
(let ((.def_273 (<= 0.0 .def_272)))
(let ((.def_300 (or .def_273 .def_299)))
(let ((.def_303 (and .def_300 .def_302)))
(let ((.def_294 (not .def_293)))
(let ((.def_297 (or .def_294 .def_296)))
(let ((.def_298 (not .def_297)))
(let ((.def_304 (or .def_298 .def_303)))
(let ((.def_289 (not .def_273)))
(let ((.def_290 (or .def_255 .def_289)))
(let ((.def_286 (not .def_285)))
(let ((.def_288 (or .def_286 .def_287)))
(let ((.def_291 (and .def_288 .def_290)))
(let ((.def_283 (or .def_276 .def_282)))
(let ((.def_284 (not .def_283)))
(let ((.def_292 (or .def_284 .def_291)))
(let ((.def_305 (and .def_292 .def_304)))
(let ((.def_274 (and .def_255 .def_273)))
(let ((.def_306 (and .def_274 .def_305)))
(let ((.def_315 (and .def_306 .def_314)))
(let ((.def_316 (and .def_58 .def_315)))
(let ((.def_28 (not b.counter.0__AT0)))
(let ((.def_259 (or b.counter.1__AT0 .def_28)))
(let ((.def_31 (not b.counter.2__AT0)))
(let ((.def_260 (or .def_31 .def_259)))
(let ((.def_261 (or b.counter.3__AT0 .def_260)))
(let ((.def_256 (and .def_58 .def_255)))
(let ((.def_253 (or .def_250 .def_252)))
(let ((.def_243 (or .def_131 .def_143)))
(let ((.def_247 (or b.counter.3__AT1 .def_243)))
(let ((.def_244 (or b.counter.2__AT1 .def_243)))
(let ((.def_242 (or .def_138 .def_143)))
(let ((.def_245 (and .def_242 .def_244)))
(let ((.def_246 (or .def_153 .def_245)))
(let ((.def_248 (and .def_246 .def_247)))
(let ((.def_254 (and .def_248 .def_253)))
(let ((.def_257 (and .def_254 .def_256)))
(let ((.def_237 (<= 0.0 b.delta__AT0)))
(let ((.def_47 (not b.EVENT.0__AT0)))
(let ((.def_45 (not b.EVENT.1__AT0)))
(let ((.def_183 (and .def_45 .def_47)))
(let ((.def_187 (not .def_183)))
(let ((.def_238 (or .def_187 .def_237)))
(let ((.def_239 (or b.EVENT.1__AT0 .def_238)))
(let ((.def_175 (= b.counter.0__AT0 b.counter.0__AT1)))
(let ((.def_173 (= b.counter.1__AT0 b.counter.1__AT1)))
(let ((.def_171 (= b.counter.2__AT0 b.counter.2__AT1)))
(let ((.def_170 (= b.counter.3__AT0 b.counter.3__AT1)))
(let ((.def_172 (and .def_170 .def_171)))
(let ((.def_174 (and .def_172 .def_173)))
(let ((.def_176 (and .def_174 .def_175)))
(let ((.def_234 (or .def_176 .def_187)))
(let ((.def_235 (or b.EVENT.1__AT0 .def_234)))
(let ((.def_223 (* (- 10.0) b.y__AT1)))
(let ((.def_68 (* b.speed_y__AT0 b.delta__AT0)))
(let ((.def_69 (* 10.0 .def_68)))
(let ((.def_226 (+ .def_69 .def_223)))
(let ((.def_64 (* b.delta__AT0 b.delta__AT0)))
(let ((.def_67 (* (- 49.0) .def_64)))
(let ((.def_227 (+ .def_67 .def_226)))
(let ((.def_71 (* 10.0 b.y__AT0)))
(let ((.def_228 (+ .def_71 .def_227)))
(let ((.def_229 (= .def_228 0.0 )))
(let ((.def_218 (* (- 5.0) b.speed_y__AT1)))
(let ((.def_78 (* (- 49.0) b.delta__AT0)))
(let ((.def_219 (+ .def_78 .def_218)))
(let ((.def_80 (* 5.0 b.speed_y__AT0)))
(let ((.def_220 (+ .def_80 .def_219)))
(let ((.def_221 (= .def_220 0.0 )))
(let ((.def_230 (and .def_221 .def_229)))
(let ((.def_231 (or .def_187 .def_230)))
(let ((.def_181 (= b.y__AT0 b.y__AT1)))
(let ((.def_169 (= b.speed_y__AT0 b.speed_y__AT1)))
(let ((.def_214 (and .def_169 .def_181)))
(let ((.def_211 (= b.delta__AT0 0.0 )))
(let ((.def_212 (and .def_183 .def_211)))
(let ((.def_213 (not .def_212)))
(let ((.def_215 (or .def_213 .def_214)))
(let ((.def_216 (or b.EVENT.1__AT0 .def_215)))
(let ((.def_232 (and .def_216 .def_231)))
(let ((.def_193 (= b.time__AT0 b.time__AT1)))
(let ((.def_205 (and .def_181 .def_193)))
(let ((.def_206 (and .def_169 .def_205)))
(let ((.def_207 (and .def_176 .def_206)))
(let ((.def_208 (or .def_45 .def_207)))
(let ((.def_196 (* (- 1.0) b.time__AT1)))
(let ((.def_199 (+ b.delta__AT0 .def_196)))
(let ((.def_200 (+ b.time__AT0 .def_199)))
(let ((.def_201 (= .def_200 0.0 )))
(let ((.def_202 (or .def_187 .def_201)))
(let ((.def_203 (or b.EVENT.1__AT0 .def_202)))
(let ((.def_194 (or .def_183 .def_193)))
(let ((.def_195 (or b.EVENT.1__AT0 .def_194)))
(let ((.def_204 (and .def_195 .def_203)))
(let ((.def_209 (and .def_204 .def_208)))
(let ((.def_189 (= .def_187 b.event_is_timed__AT1)))
(let ((.def_186 (= b.event_is_timed__AT0 .def_183)))
(let ((.def_190 (and .def_186 .def_189)))
(let ((.def_177 (and .def_169 .def_176)))
(let ((.def_120 (= b.y__AT0 0.0 )))
(let ((.def_76 (<= 0.0 b.speed_y__AT0)))
(let ((.def_77 (not .def_76)))
(let ((.def_121 (and .def_77 .def_120)))
(let ((.def_178 (or .def_121 .def_177)))
(let ((.def_144 (or b.counter.0__AT0 .def_143)))
(let ((.def_142 (or .def_28 b.counter.0__AT1)))
(let ((.def_145 (and .def_142 .def_144)))
(let ((.def_146 (and .def_131 .def_145)))
(let ((.def_147 (or b.counter.1__AT0 .def_146)))
(let ((.def_26 (not b.counter.1__AT0)))
(let ((.def_141 (or .def_26 b.counter.1__AT1)))
(let ((.def_148 (and .def_141 .def_147)))
(let ((.def_161 (and .def_138 .def_148)))
(let ((.def_162 (or b.counter.2__AT0 .def_161)))
(let ((.def_156 (and .def_28 .def_131)))
(let ((.def_157 (or b.counter.1__AT0 .def_156)))
(let ((.def_158 (and .def_141 .def_157)))
(let ((.def_159 (and b.counter.2__AT1 .def_158)))
(let ((.def_160 (or .def_31 .def_159)))
(let ((.def_163 (and .def_160 .def_162)))
(let ((.def_164 (and b.counter.3__AT1 .def_163)))
(let ((.def_165 (or b.counter.3__AT0 .def_164)))
(let ((.def_149 (and b.counter.2__AT1 .def_148)))
(let ((.def_150 (or b.counter.2__AT0 .def_149)))
(let ((.def_135 (or b.counter.1__AT0 b.counter.1__AT1)))
(let ((.def_133 (and .def_131 b.counter.0__AT1)))
(let ((.def_134 (or .def_26 .def_133)))
(let ((.def_136 (and .def_134 .def_135)))
(let ((.def_139 (and .def_136 .def_138)))
(let ((.def_140 (or .def_31 .def_139)))
(let ((.def_151 (and .def_140 .def_150)))
(let ((.def_154 (and .def_151 .def_153)))
(let ((.def_34 (not b.counter.3__AT0)))
(let ((.def_155 (or .def_34 .def_154)))
(let ((.def_166 (and .def_155 .def_165)))
(let ((.def_126 (* (- 1.0) b.speed_y__AT0)))
(let ((.def_127 (* .def_125 .def_126)))
(let ((.def_129 (= .def_127 b.speed_y__AT1)))
(let ((.def_167 (and .def_129 .def_166)))
(let ((.def_122 (not .def_121)))
(let ((.def_168 (or .def_122 .def_167)))
(let ((.def_179 (and .def_168 .def_178)))
(let ((.def_182 (and .def_179 .def_181)))
(let ((.def_184 (or .def_182 .def_183)))
(let ((.def_185 (or b.EVENT.1__AT0 .def_184)))
(let ((.def_191 (and .def_185 .def_190)))
(let ((.def_210 (and .def_191 .def_209)))
(let ((.def_233 (and .def_210 .def_232)))
(let ((.def_236 (and .def_233 .def_235)))
(let ((.def_240 (and .def_236 .def_239)))
(let ((.def_241 (and .def_45 .def_240)))
(let ((.def_258 (and .def_241 .def_257)))
(let ((.def_262 (and .def_258 .def_261)))
(let ((.def_97 (<= b.speed_y__AT0 0.0 )))
(let ((.def_82 (+ .def_80 .def_78)))
(let ((.def_95 (<= .def_82 0.0 )))
(let ((.def_114 (and .def_95 .def_97)))
(let ((.def_83 (<= 0.0 .def_82)))
(let ((.def_84 (not .def_83)))
(let ((.def_111 (or .def_76 .def_84)))
(let ((.def_98 (not .def_97)))
(let ((.def_110 (or .def_95 .def_98)))
(let ((.def_112 (and .def_110 .def_111)))
(let ((.def_115 (and .def_112 .def_114)))
(let ((.def_109 (and .def_76 .def_83)))
(let ((.def_113 (and .def_109 .def_112)))
(let ((.def_116 (or .def_113 .def_115)))
(let ((.def_70 (+ .def_67 .def_69)))
(let ((.def_73 (+ .def_71 .def_70)))
(let ((.def_89 (<= .def_73 0.0 )))
(let ((.def_103 (not .def_89)))
(let ((.def_87 (<= b.y__AT0 0.0 )))
(let ((.def_104 (or .def_87 .def_103)))
(let ((.def_50 (<= 0.0 b.y__AT0)))
(let ((.def_101 (not .def_50)))
(let ((.def_74 (<= 0.0 .def_73)))
(let ((.def_102 (or .def_74 .def_101)))
(let ((.def_105 (and .def_102 .def_104)))
(let ((.def_96 (not .def_95)))
(let ((.def_99 (or .def_96 .def_98)))
(let ((.def_100 (not .def_99)))
(let ((.def_106 (or .def_100 .def_105)))
(let ((.def_91 (not .def_74)))
(let ((.def_92 (or .def_50 .def_91)))
(let ((.def_88 (not .def_87)))
(let ((.def_90 (or .def_88 .def_89)))
(let ((.def_93 (and .def_90 .def_92)))
(let ((.def_85 (or .def_77 .def_84)))
(let ((.def_86 (not .def_85)))
(let ((.def_94 (or .def_86 .def_93)))
(let ((.def_107 (and .def_94 .def_106)))
(let ((.def_75 (and .def_50 .def_74)))
(let ((.def_108 (and .def_75 .def_107)))
(let ((.def_117 (and .def_108 .def_116)))
(let ((.def_118 (and .def_58 .def_117)))
(let ((.def_59 (and .def_50 .def_58)))
(let ((.def_48 (or .def_45 .def_47)))
(let ((.def_38 (or .def_26 .def_28)))
(let ((.def_42 (or b.counter.3__AT0 .def_38)))
(let ((.def_39 (or b.counter.2__AT0 .def_38)))
(let ((.def_37 (or .def_28 .def_31)))
(let ((.def_40 (and .def_37 .def_39)))
(let ((.def_41 (or .def_34 .def_40)))
(let ((.def_43 (and .def_41 .def_42)))
(let ((.def_49 (and .def_43 .def_48)))
(let ((.def_60 (and .def_49 .def_59)))
(let ((.def_29 (and .def_26 .def_28)))
(let ((.def_32 (and .def_29 .def_31)))
(let ((.def_35 (and .def_32 .def_34)))
(let ((.def_23 (= b.speed_y__AT0 0.0 )))
(let ((.def_20 (= b.y__AT0 10.0 )))
(let ((.def_15 (= b.time__AT0 0.0 )))
(let ((.def_17 (and .def_15 b.event_is_timed__AT0)))
(let ((.def_21 (and .def_17 .def_20)))
(let ((.def_24 (and .def_21 .def_23)))
(let ((.def_36 (and .def_24 .def_35)))
(let ((.def_61 (and .def_36 .def_60)))
(let ((.def_6 (or .def_4 b.counter.1__AT2)))
(let ((.def_9 (or .def_6 .def_8)))
(let ((.def_11 (or .def_9 b.counter.3__AT2)))
(let ((.def_12 (not .def_11)))
(let ((.def_62 (and .def_12 .def_61)))
(let ((.def_119 (and .def_62 .def_118)))
(let ((.def_263 (and .def_119 .def_262)))
(let ((.def_317 (and .def_263 .def_316)))
(let ((.def_451 (and .def_317 .def_450)))
(let ((.def_505 (and .def_451 .def_504)))
.def_505)))))))))))))))))))))))))))))))))))))))))))))))))))))))))))))))))))))))))))))))))))))))))))))))))))))))))))))))))))))))))))))))))))))))))))))))))))))))))))))))))))))))))))))))))))))))))))))))))))))))))))))))))))))))))))))))))))))))))))))))))))))))))))))))))))))))))))))))))))))))))))))))))))))))))))))))))))))))))))))))))))))))))))))))))))))))))))))))))))))))))))))))))))))))))))))))))))))))))))))))))))))))))))))))))))))))))))))))))))))))))))
(check-sat)
(exit)
